param T := 4;
param C := 3;
param S := 2;

param TotalLectures := 
1 2
2 2
3 3
;

param K:=
1 2 1
1 3 1
2 1 1
2 3 5
3 1 1
3 2 5
;

param P:=
1 1 0
1 2 5
1 3 0
1 4 0
2 1 0
2 2 0
2 3 0
2 4 0
3 1 0
3 2 0
3 3 0
3 4 0
;

set LargeCourse100 :=
1
;
set LargeCourse80 :=
1
2
;

set LargeCourse60 :=
1
2
3
;

param Course100Limit := 1;
param Course80Limit := 2;
param Course60Limit := 3;

end;


